66 32 16 62 68 33 52 30 8 94 34 89 50 73 67 6 49 11 99 57 4 29 38 54 23 98 59 18 1 36 46 85 41 35 47 84 55 40 21 86 12 48 63 92 17 58 15 45 97 64 28 76 79 22 61 95 93 14 26 69 91 88 71 75 96 24 3 25 90 80 42 2 56 81 10 31 0 27 83 39 77 37 51 60 78 9 82 87 72 20 43 44 19 5 70 13 74 7 65 53